;; sequence(s): A168187
;; terms: 0 1 260 9855 131104 976625 5038956 20176975 67109120 193710609 500000500 1178974511 2579891040 5302250785 10330524764 19221681375 34359740416 59293940705 99179648100 161343852319
;; small program: loop((((x * x) + y) * x) - x, 2, x) div 2
;; fast program: loop(((x * x) * x) + x, 1, (x * x) * x) div 2
(set-logic UFNIA)
(define-fun divf ((a Int) (b Int)) Int (ite (< 0 b) (div a b) (div (- a) (- b))))
(declare-fun f0 (Int Int) Int)
(declare-fun g0 () Int)
(declare-fun h0 (Int) Int)
(declare-fun u0 (Int Int) Int)
(declare-fun v0 (Int) Int)
(declare-fun small (Int) Int)
(declare-fun f1 (Int) Int)
(declare-fun g1 () Int)
(declare-fun h1 (Int) Int)
(declare-fun u1 (Int Int) Int)
(declare-fun v1 (Int) Int)
(declare-fun fast (Int) Int)
(assert (forall ((x Int) (y Int)) (= (f0 x y) (- (* (+ (* x x) y) x) x))))
(assert (= g0 2))
(assert (forall ((x Int)) (= (h0 x) x)))
(assert (forall ((x Int) (y Int)) (= (u0 x y) (ite (<= x 0) y (f0 (u0 (- x 1) y) x)))))
(assert (forall ((x Int)) (= (v0 x) (u0 g0 (h0 x)))))
(assert (forall ((x Int)) (= (small x) (divf (v0 x) 2))))
(assert (forall ((x Int)) (= (f1 x) (+ (* (* x x) x) x))))
(assert (= g1 1))
(assert (forall ((x Int)) (= (h1 x) (* (* x x) x))))
(assert (forall ((x Int) (y Int)) (= (u1 x y) (ite (<= x 0) y (f1 (u1 (- x 1) y))))))
(assert (forall ((x Int)) (= (v1 x) (u1 g1 (h1 x)))))
(assert (forall ((x Int)) (= (fast x) (divf (v1 x) 2))))
(assert (exists ((c Int)) (and (>= c 0) (not (= (small c) (fast c))))))
(check-sat)
